coords = array2d(1..64, 1..2, [800, 721, 261, 610, 721, 248, 13, 738, 136, 569,
    634, 995, 131, 214, 44, 887, 675, 428, 449, 265, 602, 697, 479,
    15, 221, 932, 685, 266, 156, 740, 891, 781, 972, 783, 107, 648,
    455, 814, 41, 937, 934, 537, 871, 842, 180, 83, 379, 147, 989,
    282, 470, 708, 157, 405, 252, 287, 758, 907, 657, 171, 674, 652,
    859, 917, 438, 924, 312, 247, 575, 745, 566, 361, 292, 776, 809,
    670, 49, 227, 124, 426, 429, 375, 308, 388, 738, 204, 826, 260,
    559, 813, 378, 865, 492, 9, 118, 392, 256, 937, 12, 576, 942, 374,
    647, 7, 864, 905, 895, 423, 24, 108, 335, 253, 806, 958, 7, 878,
    417, 451, 428, 159, 676, 440, 197, 621, 351, 731, 382, 640]);

n = 64;

